networks/zoo_46_102/zoo_46_102-lower.sol
<?xml version = "1.0" encoding="UTF-8" standalone="yes"?>
<CPLEXSolution version="1.2">
 <header
   problemName="networks/zoo_46_102/zoo_46_102-lower.lp"
   solutionName="incumbent"
   solutionIndex="-1"
   objectiveValue="19"
   solutionTypeValue="3"
   solutionTypeString="primal"
   solutionStatusValue="101"
   solutionStatusString="integer optimal solution"
   solutionMethodString="mip"
   primalFeasible="1"
   dualFeasible="1"
   MIPNodes="0"
   MIPIterations="0"
   writeLevel="3"/>
 <quality
   epInt="1.0000000000000001e-05"
   epRHS="9.9999999999999995e-07"
   maxIntInfeas="0"
   maxPrimalInfeas="0"
   maxX="1"
   maxSlack="1"/>
 <variables>
  <variable name="Y(1,2)" index="1" value="1"/>
  <variable name="Y(2,3)" index="43" value="1"/>
  <variable name="Y(3,4)" index="85" value="1"/>
  <variable name="Y(4,5)" index="127" value="1"/>
  <variable name="Y(5,6)" index="169" value="1"/>
  <variable name="Y(6,8)" index="212" value="1"/>
  <variable name="Y(7,9)" index="254" value="1"/>
  <variable name="Y(8,10)" index="296" value="1"/>
  <variable name="Y(9,13)" index="340" value="1"/>
  <variable name="Y(10,14)" index="382" value="1"/>
  <variable name="Y(11,15)" index="424" value="1"/>
  <variable name="Y(12,16)" index="466" value="1"/>
  <variable name="Y(13,17)" index="508" value="1"/>
  <variable name="Y(14,18)" index="550" value="1"/>
  <variable name="Y(15,20)" index="592" value="1"/>
  <variable name="Y(16,21)" index="634" value="1"/>
  <variable name="Y(17,22)" index="676" value="1"/>
  <variable name="Y(18,1)" index="697" value="1"/>
  <variable name="Y(83,23)" index="3383" value="1"/>
  <variable name="X(1,2,1)" index="4182" value="1"/>
  <variable name="X(1,5,4)" index="4287" value="1"/>
  <variable name="X(1,14,2)" index="4387" value="1"/>
  <variable name="X(1,22,9)" index="4496" value="1"/>
  <variable name="X(1,24,18)" index="4607" value="1"/>
  <variable name="X(2,25,1)" index="4692" value="1"/>
  <variable name="X(3,14,18)" index="4811" value="1"/>
  <variable name="X(3,26,2)" index="4897" value="1"/>
  <variable name="X(4,27,3)" index="5000" value="1"/>
  <variable name="X(5,1,19)" index="5118" value="1"/>
  <variable name="X(5,6,5)" index="5206" value="1"/>
  <variable name="X(5,8,6)" index="5309" value="1"/>
  <variable name="X(5,28,4)" index="5409" value="1"/>
  <variable name="X(6,5,33)" index="5540" value="1"/>
  <variable name="X(6,9,7)" index="5616" value="1"/>
  <variable name="X(6,10,8)" index="5719" value="1"/>
  <variable name="X(6,29,5)" index="5818" value="1"/>
  <variable name="X(7,1,37)" index="5952" value="1"/>
  <variable name="X(8,31,6)" index="6023" value="1"/>
  <variable name="X(9,32,7)" index="6126" value="1"/>
  <variable name="X(10,6,39)" index="6260" value="1"/>
  <variable name="X(10,33,8)" index="6331" value="1"/>
  <variable name="X(11,14,42)" index="6467" value="1"/>
  <variable name="X(12,16,46)" index="6573" value="1"/>
  <variable name="X(13,16,50)" index="6679" value="1"/>
  <variable name="X(13,36,9)" index="6740" value="1"/>
  <variable name="X(14,1,18)" index="6851" value="1"/>
  <variable name="X(14,3,2)" index="6937" value="1"/>
  <variable name="X(14,4,3)" index="7040" value="1"/>
  <variable name="X(14,15,11)" index="7150" value="1"/>
  <variable name="X(14,22,45)" index="7286" value="1"/>
  <variable name="X(14,23,83)" index="7426" value="1"/>
  <variable name="X(14,37,10)" index="7455" value="1"/>
  <variable name="X(15,38,11)" index="7558" value="1"/>
  <variable name="X(16,13,9)" index="7658" value="1"/>
  <variable name="X(16,17,13)" index="7764" value="1"/>
  <variable name="X(16,18,14)" index="7867" value="1"/>
  <variable name="X(16,22,46)" index="8001" value="1"/>
  <variable name="X(16,39,12)" index="8069" value="1"/>
  <variable name="X(17,16,84)" index="8243" value="1"/>
  <variable name="X(17,40,13)" index="8274" value="1"/>
  <variable name="X(18,16,88)" index="8451" value="1"/>
  <variable name="X(18,20,15)" index="8480" value="1"/>
  <variable name="X(18,41,14)" index="8581" value="1"/>
  <variable name="X(20,18,97)" index="8766" value="1"/>
  <variable name="X(20,43,15)" index="8786" value="1"/>
  <variable name="X(21,44,16)" index="8889" value="1"/>
  <variable name="X(22,1,46)" index="9021" value="1"/>
  <variable name="X(22,14,48)" index="9125" value="1"/>
  <variable name="X(22,16,9)" index="9188" value="1"/>
  <variable name="X(22,21,16)" index="9297" value="1"/>
  <variable name="X(22,45,17)" index="9400" value="1"/>
  <variable name="X(23,46,83)" index="9568" value="1"/>
 </variables>
</CPLEXSolution>
